NAME          ClpDefau  FREE
ROWS
 N  OBJROW
 L  ZMUNI1_PCT
 L  ZMUNI2_PCT
 L  ZMUNI3_PCT
 L  ZMUNI4_PCT
 L  ZMUNI5_PCT
 L  ZMUNI6_PCT
 L  ZMUNI7_PCT
 L  ZMUNI8_PCT
 L  ZMUNI9_PCT
COLUMNS
    QMUNI1 OBJROW 1.          
    QMUNI1 ZMUNI1_PCT 28657.0549  
    QMUNI1 ZMUNI2_PCT 2155.68543  
    QMUNI1 ZMUNI3_PCT 4937.31498  
    QMUNI1 ZMUNI4_PCT 3480.3391   
    QMUNI1 ZMUNI5_PCT 363.9221    
    QMUNI1 ZMUNI6_PCT 599.4797    
    QMUNI1 ZMUNI7_PCT 2121.40083  
    QMUNI1 ZMUNI8_PCT 1925.75454  
    QMUNI1 ZMUNI9_PCT 1250.8392   
    QMUNI2 OBJROW 1.          
    QMUNI2 ZMUNI1_PCT 2451.1338   
    QMUNI2 ZMUNI2_PCT 33304.97742 
    QMUNI2 ZMUNI3_PCT 3341.9609   
    QMUNI2 ZMUNI4_PCT 3312.1109   
    QMUNI2 ZMUNI5_PCT 508.1177    
    QMUNI2 ZMUNI6_PCT 643.3487    
    QMUNI2 ZMUNI7_PCT 1891.56532  
    QMUNI2 ZMUNI8_PCT 2350.61645  
    QMUNI2 ZMUNI9_PCT 2660.7513   
    QMUNI3 OBJROW 1.          
    QMUNI3 ZMUNI1_PCT 4772.8539   
    QMUNI3 ZMUNI2_PCT 2905.17807  
    QMUNI3 ZMUNI3_PCT 29865.12184 
    QMUNI3 ZMUNI4_PCT 5482.1014   
    QMUNI3 ZMUNI5_PCT 165.1764    
    QMUNI3 ZMUNI6_PCT 334.1675    
    QMUNI3 ZMUNI7_PCT 1687.86049  
    QMUNI3 ZMUNI8_PCT 1730.34668  
    QMUNI3 ZMUNI9_PCT 1139.6408   
    QMUNI4 OBJROW 1.          
    QMUNI4 ZMUNI1_PCT 3668.2129   
    QMUNI4 ZMUNI2_PCT 3233.90961  
    QMUNI4 ZMUNI3_PCT 6068.56346  
    QMUNI4 ZMUNI4_PCT 97387.5046  
    QMUNI4 ZMUNI5_PCT  -39.6729   
    QMUNI4 ZMUNI6_PCT 109.4818    
    QMUNI4 ZMUNI7_PCT 1282.97806  
    QMUNI4 ZMUNI8_PCT 1385.97488  
    QMUNI4 ZMUNI9_PCT 999.6414    
    QMUNI5 OBJROW 1.          
    QMUNI5 ZMUNI1_PCT 214.8629    
    QMUNI5 ZMUNI2_PCT 132.98989   
    QMUNI5 ZMUNI3_PCT 176.52511   
    QMUNI5 ZMUNI4_PCT 133.5144    
    QMUNI5 ZMUNI5_PCT 29533.7677  
    QMUNI5 ZMUNI6_PCT 2948.5703   
    QMUNI5 ZMUNI7_PCT 390.24353   
    QMUNI5 ZMUNI8_PCT 326.34735   
    QMUNI5 ZMUNI9_PCT 339.8895    
    QMUNI6 OBJROW 1.          
    QMUNI6 ZMUNI1_PCT 628.1853    
    QMUNI6 ZMUNI2_PCT 460.33859   
    QMUNI6 ZMUNI3_PCT 555.56297   
    QMUNI6 ZMUNI4_PCT 444.4122    
    QMUNI6 ZMUNI5_PCT 2874.3744   
    QMUNI6 ZMUNI6_PCT 30459.7855  
    QMUNI6 ZMUNI7_PCT 996.01746   
    QMUNI6 ZMUNI8_PCT 899.21951   
    QMUNI6 ZMUNI9_PCT 992.5842    
    QMUNI7 OBJROW 1.          
    QMUNI7 ZMUNI1_PCT 1896.7629   
    QMUNI7 ZMUNI2_PCT 1201.96343  
    QMUNI7 ZMUNI3_PCT 1691.6275   
    QMUNI7 ZMUNI4_PCT 1273.7274   
    QMUNI7 ZMUNI5_PCT 140.3809    
    QMUNI7 ZMUNI6_PCT 464.4394    
    QMUNI7 ZMUNI7_PCT 26114.32075 
    QMUNI7 ZMUNI8_PCT 3110.31341  
    QMUNI7 ZMUNI9_PCT 1710.7009   
    QMUNI8 OBJROW 1.          
    QMUNI8 ZMUNI1_PCT 1554.7753   
    QMUNI8 ZMUNI2_PCT 1389.50348  
    QMUNI8 ZMUNI3_PCT 1577.80647  
    QMUNI8 ZMUNI4_PCT 1213.6459   
    QMUNI8 ZMUNI5_PCT 387.001     
    QMUNI8 ZMUNI6_PCT 544.548     
    QMUNI8 ZMUNI7_PCT 3001.30844  
    QMUNI8 ZMUNI8_PCT 25903.98788 
    QMUNI8 ZMUNI9_PCT 2501.1062   
    QMUNI9 OBJROW 1.          
    QMUNI9 ZMUNI1_PCT 591.0874    
    QMUNI9 ZMUNI2_PCT 932.3597    
    QMUNI9 ZMUNI3_PCT 709.62905   
    QMUNI9 ZMUNI4_PCT 615.3107    
    QMUNI9 ZMUNI5_PCT  -116.3483  
    QMUNI9 ZMUNI6_PCT  -53.215    
    QMUNI9 ZMUNI7_PCT 642.1566    
    QMUNI9 ZMUNI8_PCT 1263.14163  
    QMUNI9 ZMUNI9_PCT 24664.8788  
RHS
    RHS ZMUNI1_PCT  -2.41442049
    RHS ZMUNI2_PCT  -0.69627519
    RHS ZMUNI3_PCT  -0.36703788
    RHS ZMUNI4_PCT  -4.69159852
    RHS ZMUNI5_PCT  -5.85127598
    RHS ZMUNI6_PCT  -5.72730003
    RHS ZMUNI7_PCT  -3.36525641
    RHS ZMUNI8_PCT  -3.74523911
    RHS ZMUNI9_PCT  -3.23142732
BOUNDS
 LO BOUND QMUNI1 -0.001698495
 UP BOUND QMUNI1      1.1e+10
 LO BOUND QMUNI2 -0.00117833 
 UP BOUND QMUNI2      1.1e+10
 LO BOUND QMUNI3 -0.00121802 
 UP BOUND QMUNI3      1.1e+10
 LO BOUND QMUNI4 -0.000467889
 UP BOUND QMUNI4      1.1e+10
 LO BOUND QMUNI5 -0.00149612 
 UP BOUND QMUNI5      1.1e+10
 LO BOUND QMUNI6 -0.001708783
 UP BOUND QMUNI6      1.1e+10
 LO BOUND QMUNI7 -0.001325521
 UP BOUND QMUNI7      1.1e+10
 LO BOUND QMUNI8 -0.001530208
 UP BOUND QMUNI8      1.1e+10
 LO BOUND QMUNI9 -0.002120168
 UP BOUND QMUNI9      1.1e+10
ENDATA
